Minimize
  6.6873471536293775e+06 x0_1_0 + 9.5583807053481285e+06 x0_2_0
   + 1.7253966867050573e+07 x0_3_0 + 4.0417508809507126e+06 x0_4_0
   + 4.4982528632511962e+06 x0_5_0 + 1.090009357780182e+07 x0_6_0
   + 2.7102797105712891e+06 x0_7_0 + 5.3465077238769531e+06 x0_8_0
   + 5.038867640625e+06 x0_9_0 + 1.3955096025279695e+07 x1_2_0
   + 9.3351907652729563e+06 x1_3_0 + 2.2670364853235534e+06 x1_4_0
   + 3.04939226448208e+06 x1_5_0 + 5.3968187298649019e+06 x1_6_0
   + 4.2438345534865595e+06 x1_7_0 + 2.7191072952575684e+06 x1_8_0
   + 5.2137525280761719e+06 x1_9_0 + 3.1654770647865608e+07 x2_3_0
   + 5.3698059096175777e+06 x2_4_0 + 1.0817054800107319e+07 x2_5_0
   + 9.5858590683563761e+06 x2_6_0 + 8.8940247920231018e+06 x2_7_0
   + 1.0300419141723633e+07 x2_8_0 + 6.3623646223419532e+06 x2_9_0
   + 9.7346299267167803e+06 x3_4_0 + 1.3144112021827029e+07 x3_5_0
   + 2.4764416678725246e+07 x3_6_0 + 2.4811035969726562e+07 x3_7_0
   + 1.2171426130661011e+07 x3_8_0 + 1.4753270754882812e+07 x3_9_0
   + 2.7308140143563901e+06 x4_5_0 + 3.4265658770377394e+06 x4_6_0
   + 1.687544224609375e+06 x4_7_0 + 1.7156179217529297e+06 x4_8_0
   + 1.6861255246582031e+06 x4_9_0 + 5.4455579608986489e+06 x5_6_0
   + 3.5624928375986903e+06 x5_7_0 + 982082.4027328491 x5_8_0
   + 3.4490260541447736e+06 x5_9_0 + 7.6724174826660156e+06 x6_7_0
   + 6.3671581606445313e+06 x6_8_0 + 7.5861390416259766e+06 x6_9_0
   + 5.1379092421875009e+06 x7_8_0 + 4.9637648913574219e+06 x7_9_0
   + 3.89611353125e+06 x8_9_0
Subject To
 c20_1: x0_1_0 = 1
 c20_2: x0_2_0 = 1
 c20_3: x0_3_0 = 1
 c20_4: x0_4_0 = 1
 c20_5: x0_5_0 = 1
 c20_6: x0_6_0 = 1
 c20_7: x0_7_0 = 1
 c20_8: x0_8_0 = 1
 c20_9: x0_9_0 = 1
 c21_2: x1_2_0 = 1
 c21_3: x1_3_0 = 1
 c21_4: x1_4_0 = 1
 c21_5: x1_5_0 = 1
 c21_6: x1_6_0 = 1
 c21_7: x1_7_0 = 1
 c21_8: x1_8_0 = 1
 c21_9: x1_9_0 = 1
 c22_3: x2_3_0 = 1
 c22_4: x2_4_0 = 1
 c22_5: x2_5_0 = 1
 c22_6: x2_6_0 = 1
 c22_7: x2_7_0 = 1
 c22_8: x2_8_0 = 1
 c22_9: x2_9_0 = 1
 c23_4: x3_4_0 = 1
 c23_5: x3_5_0 = 1
 c23_6: x3_6_0 = 1
 c23_7: x3_7_0 = 1
 c23_8: x3_8_0 = 1
 c23_9: x3_9_0 = 1
 c24_5: x4_5_0 = 1
 c24_6: x4_6_0 = 1
 c24_7: x4_7_0 = 1
 c24_8: x4_8_0 = 1
 c24_9: x4_9_0 = 1
 c25_6: x5_6_0 = 1
 c25_7: x5_7_0 = 1
 c25_8: x5_8_0 = 1
 c25_9: x5_9_0 = 1
 c26_7: x6_7_0 = 1
 c26_8: x6_8_0 = 1
 c26_9: x6_9_0 = 1
 c27_8: x7_8_0 = 1
 c27_9: x7_9_0 = 1
 c28_9: x8_9_0 = 1
 c40_1_7: x0_1_0 <= 36
 c40_1_8: x0_1_0 <= 36
 c40_1_9: x0_1_0 <= 36
 c40_2_7: x0_2_0 <= 36
 c40_2_8: x0_2_0 <= 36
 c40_2_9: x0_2_0 <= 36
 c40_3_7: x0_3_0 <= 36
 c40_3_8: x0_3_0 <= 36
 c40_3_9: x0_3_0 <= 36
 c40_4_7: x0_4_0 <= 36
 c40_4_8: x0_4_0 <= 36
 c40_4_9: x0_4_0 <= 36
 c40_5_7: x0_5_0 <= 36
 c40_5_8: x0_5_0 <= 36
 c40_5_9: x0_5_0 <= 36
 c40_6_7: x0_6_0 <= 36
 c40_6_8: x0_6_0 <= 36
 c40_6_9: x0_6_0 <= 36
 c40_7_7: x0_7_0 <= 36
 c40_7_8: x0_7_0 <= 36
 c40_7_9: x0_7_0 <= 36
 c40_8_7: x0_8_0 <= 36
 c40_8_8: x0_8_0 <= 36
 c40_8_9: x0_8_0 <= 36
 c40_9_7: x0_9_0 <= 36
 c40_9_8: x0_9_0 <= 36
 c40_9_9: x0_9_0 <= 36
 c41_2_7: x1_2_0 <= 36
 c41_2_8: x1_2_0 <= 36
 c41_2_9: x1_2_0 <= 36
 c41_3_7: x1_3_0 <= 36
 c41_3_8: x1_3_0 <= 36
 c41_3_9: x1_3_0 <= 36
 c41_4_7: x1_4_0 <= 36
 c41_4_8: x1_4_0 <= 36
 c41_4_9: x1_4_0 <= 36
 c41_5_7: x1_5_0 <= 36
 c41_5_8: x1_5_0 <= 36
 c41_5_9: x1_5_0 <= 36
 c41_6_7: x1_6_0 <= 36
 c41_6_8: x1_6_0 <= 36
 c41_6_9: x1_6_0 <= 36
 c41_7_7: x1_7_0 <= 36
 c41_7_8: x1_7_0 <= 36
 c41_7_9: x1_7_0 <= 36
 c41_8_7: x1_8_0 <= 36
 c41_8_8: x1_8_0 <= 36
 c41_8_9: x1_8_0 <= 36
 c41_9_7: x1_9_0 <= 36
 c41_9_8: x1_9_0 <= 36
 c41_9_9: x1_9_0 <= 36
 c42_3_7: x2_3_0 <= 36
 c42_3_8: x2_3_0 <= 36
 c42_3_9: x2_3_0 <= 36
 c42_4_7: x2_4_0 <= 36
 c42_4_8: x2_4_0 <= 36
 c42_4_9: x2_4_0 <= 36
 c42_5_7: x2_5_0 <= 36
 c42_5_8: x2_5_0 <= 36
 c42_5_9: x2_5_0 <= 36
 c42_6_7: x2_6_0 <= 36
 c42_6_8: x2_6_0 <= 36
 c42_6_9: x2_6_0 <= 36
 c42_7_7: x2_7_0 <= 36
 c42_7_8: x2_7_0 <= 36
 c42_7_9: x2_7_0 <= 36
 c42_8_7: x2_8_0 <= 36
 c42_8_8: x2_8_0 <= 36
 c42_8_9: x2_8_0 <= 36
 c42_9_7: x2_9_0 <= 36
 c42_9_8: x2_9_0 <= 36
 c42_9_9: x2_9_0 <= 36
 c43_4_7: x3_4_0 <= 36
 c43_4_8: x3_4_0 <= 36
 c43_4_9: x3_4_0 <= 36
 c43_5_7: x3_5_0 <= 36
 c43_5_8: x3_5_0 <= 36
 c43_5_9: x3_5_0 <= 36
 c43_6_7: x3_6_0 <= 36
 c43_6_8: x3_6_0 <= 36
 c43_6_9: x3_6_0 <= 36
 c43_7_7: x3_7_0 <= 36
 c43_7_8: x3_7_0 <= 36
 c43_7_9: x3_7_0 <= 36
 c43_8_7: x3_8_0 <= 36
 c43_8_8: x3_8_0 <= 36
 c43_8_9: x3_8_0 <= 36
 c43_9_7: x3_9_0 <= 36
 c43_9_8: x3_9_0 <= 36
 c43_9_9: x3_9_0 <= 36
 c44_5_7: x4_5_0 <= 36
 c44_5_8: x4_5_0 <= 36
 c44_5_9: x4_5_0 <= 36
 c44_6_7: x4_6_0 <= 36
 c44_6_8: x4_6_0 <= 36
 c44_6_9: x4_6_0 <= 36
 c44_7_7: x4_7_0 <= 36
 c44_7_8: x4_7_0 <= 36
 c44_7_9: x4_7_0 <= 36
 c44_8_7: x4_8_0 <= 36
 c44_8_8: x4_8_0 <= 36
 c44_8_9: x4_8_0 <= 36
 c44_9_7: x4_9_0 <= 36
 c44_9_8: x4_9_0 <= 36
 c44_9_9: x4_9_0 <= 36
 c45_6_7: x5_6_0 <= 36
 c45_6_8: x5_6_0 <= 36
 c45_6_9: x5_6_0 <= 36
 c45_7_7: x5_7_0 <= 36
 c45_7_8: x5_7_0 <= 36
 c45_7_9: x5_7_0 <= 36
 c45_8_7: x5_8_0 <= 36
 c45_8_8: x5_8_0 <= 36
 c45_8_9: x5_8_0 <= 36
 c45_9_7: x5_9_0 <= 36
 c45_9_8: x5_9_0 <= 36
 c45_9_9: x5_9_0 <= 36
 c46_7_7: x6_7_0 <= 36
 c46_7_8: x6_7_0 <= 36
 c46_7_9: x6_7_0 <= 36
 c46_8_7: x6_8_0 <= 36
 c46_8_8: x6_8_0 <= 36
 c46_8_9: x6_8_0 <= 36
 c46_9_7: x6_9_0 <= 36
 c46_9_8: x6_9_0 <= 36
 c46_9_9: x6_9_0 <= 36
 c47_8_7: x7_8_0 <= 36
 c47_8_8: x7_8_0 <= 36
 c47_8_9: x7_8_0 <= 36
 c47_9_7: x7_9_0 <= 36
 c47_9_8: x7_9_0 <= 36
 c47_9_9: x7_9_0 <= 36
 c48_9_7: x8_9_0 <= 36
 c48_9_8: x8_9_0 <= 36
 c48_9_9: x8_9_0 <= 36
Bounds
 x0_1_0 <= 1
 x0_2_0 <= 1
 x0_3_0 <= 1
 x0_4_0 <= 1
 x0_5_0 <= 1
 x0_6_0 <= 1
 x0_7_0 <= 1
 x0_8_0 <= 1
 x0_9_0 <= 1
 x1_2_0 <= 1
 x1_3_0 <= 1
 x1_4_0 <= 1
 x1_5_0 <= 1
 x1_6_0 <= 1
 x1_7_0 <= 1
 x1_8_0 <= 1
 x1_9_0 <= 1
 x2_3_0 <= 1
 x2_4_0 <= 1
 x2_5_0 <= 1
 x2_6_0 <= 1
 x2_7_0 <= 1
 x2_8_0 <= 1
 x2_9_0 <= 1
 x3_4_0 <= 1
 x3_5_0 <= 1
 x3_6_0 <= 1
 x3_7_0 <= 1
 x3_8_0 <= 1
 x3_9_0 <= 1
 x4_5_0 <= 1
 x4_6_0 <= 1
 x4_7_0 <= 1
 x4_8_0 <= 1
 x4_9_0 <= 1
 x5_6_0 <= 1
 x5_7_0 <= 1
 x5_8_0 <= 1
 x5_9_0 <= 1
 x6_7_0 <= 1
 x6_8_0 <= 1
 x6_9_0 <= 1
 x7_8_0 <= 1
 x7_9_0 <= 1
 x8_9_0 <= 1
End
